cpu-bind=MASK - n2lcn0129, task  0  0 [742164]: mask |--------|--------||--------|--------||--------|-------B||BBB-----|--------||||--------|--------||--------|--------||--------|--------||--------|--------|  set
started at Fri Mar 17 12:18:50 CET 2023
Timecheck 10015677.847900748
Set parameter TokenServer to value "license3.uni-paderborn.de"
Warning: Gurobi version mismatch between Python 10.0.1 and C library 10.0.0
Timecheck 10015677.85293168
Timecheck 10015677.85315594
Timecheck 10015677.853198588
Timecheck 10015677.8532246


####################################################################################################
Solve scenario sce_4_26_2 with free vessel operation using the arc flow model
Vessels can omit ports, Demands can be rejected
####################################################################################################
Data preprocessing, load /upb/departments/pc2/groups/hpc-prf-winf4/dwetzel/SILSRP/inst_final/sce_4_26_2
and create additional sets and parameters
	|- Read vessel information, number of vessels:	11
	|- Read node information, number of nodes:		610
	|- Read arc information
		|- Number of sailing arcs:			4126
		|- Number of transshipment arcs:	803
	|- Read container information
		|- Number of demands:		2847
		|- Number of empties (+/-):	309/278
	|- Create additional sets and parameters

Data preprocessing took 	00:00:02.674
####################################################################################################
Create linear model
Set parameter Threads to value 4
	|- Create variables, took	00:00:05.189
	|- Create objective, took	00:00:03.543
	|- Create constraints, took	00:00:12.461
	|- Load heuristic start

Creating model took	00:00:21.300
####################################################################################################
Fix start solution

Set parameter TimeLimit to value 6.9956024549333379e+04
Gurobi Optimizer version 10.0.0 build v10.0.0rc2 (linux64)

CPU model: AMD EPYC 7763 64-Core Processor, instruction set [SSE2|AVX|AVX2]
Thread count: 128 physical cores, 128 logical processors, using up to 4 threads

Optimize a model with 194616 rows, 1148917 columns and 3659141 nonzeros
Model fingerprint: 0x0cfc9e58
Variable types: 1100086 continuous, 48831 integer (48831 binary)
Coefficient statistics:
  Matrix range     [1e+00, 3e+05]
  Objective range  [1e+00, 1e+00]
  Bounds range     [1e+00, 5e+02]
  RHS range        [1e+00, 8e+07]
Found heuristic solution: objective 1.010396e+08
Presolve removed 175886 rows and 1102598 columns
Presolve time: 3.86s
Presolved: 18730 rows, 46319 columns, 138526 nonzeros
Found heuristic solution: objective 5.026850e+07
Variable types: 43986 continuous, 2333 integer (2317 binary)
Deterministic concurrent LP optimizer: primal and dual simplex
Showing first log only...

Concurrent spin time: 0.02s

Solved with dual simplex

Root relaxation: objective 2.959790e+07, 6380 iterations, 0.25 seconds (0.19 work units)

    Nodes    |    Current Node    |     Objective Bounds      |     Work
 Expl Unexpl |  Obj  Depth IntInf | Incumbent    BestBd   Gap | It/Node Time

*    0     0               0    2.959790e+07 2.9598e+07  0.00%     -    4s

Explored 1 nodes (6380 simplex iterations) in 4.45 seconds (2.54 work units)
Thread count was 4 (of 128 available processors)

Solution count 3: 2.95979e+07 5.02685e+07 1.0104e+08 

Optimal solution found (tolerance 1.00e-04)
Best objective 2.959790300000e+07, best bound 2.959790300000e+07, gap 0.0000%

Fixing start solution took	00:00:26.161
####################################################################################################
####################################################################################################
Solve optimization model

Set parameter TimeLimit to value 6.9951507766406983e+04
Gurobi Optimizer version 10.0.0 build v10.0.0rc2 (linux64)

CPU model: AMD EPYC 7763 64-Core Processor, instruction set [SSE2|AVX|AVX2]
Thread count: 128 physical cores, 128 logical processors, using up to 4 threads

Optimize a model with 194133 rows, 1148917 columns and 3658658 nonzeros
Model fingerprint: 0x558bf2c7
Variable types: 1100086 continuous, 48831 integer (48831 binary)
Coefficient statistics:
  Matrix range     [1e+00, 3e+05]
  Objective range  [1e+00, 1e+00]
  Bounds range     [1e+00, 5e+02]
  RHS range        [1e+00, 8e+07]

Loaded MIP start from previous solve with objective 2.95979e+07

Presolve removed 10570 rows and 9415 columns (presolve time = 5s) ...
Presolve removed 10570 rows and 9415 columns
Presolve time: 9.15s
Presolved: 183563 rows, 1139502 columns, 3302745 nonzeros
Variable types: 1093517 continuous, 45985 integer (45984 binary)
Deterministic concurrent LP optimizer: primal simplex, dual simplex, and barrier
Showing barrier log only...

Root barrier log...

Elapsed ordering time = 5s
Elapsed ordering time = 10s
Elapsed ordering time = 15s
Elapsed ordering time = 20s
Elapsed ordering time = 25s
Elapsed ordering time = 30s
Ordering time: 31.66s

Barrier statistics:
 AA' NZ     : 3.112e+06
 Factor NZ  : 7.317e+07 (roughly 1.1 GB of memory)
 Factor Ops : 1.157e+11 (roughly 2 seconds per iteration)
 Threads    : 2

                  Objective                Residual
Iter       Primal          Dual         Primal    Dual     Compl     Time
   0   5.57592803e+14 -5.78316910e+13  3.34e+08 4.10e+03  2.59e+11    50s
   1   1.22414781e+14 -1.67881557e+13  7.24e+07 1.24e+04  5.72e+10    53s
   2   1.26873971e+13 -6.00327617e+12  7.46e+06 1.66e-09  6.07e+09    56s
   3   2.58972197e+12 -2.43635202e+12  1.52e+06 2.28e-09  1.24e+09    60s
   4   5.13174404e+11 -1.24589072e+12  3.00e+05 1.94e-09  2.49e+08    63s
   5   5.53670025e+10 -8.35443449e+11  3.22e+04 1.63e-09  2.72e+07    67s
   6   4.81815282e+09 -6.64401157e+11  2.70e+03 4.35e-09  2.54e+06    72s
   7   5.70000311e+08 -3.89558722e+11  2.28e+02 3.49e-09  3.46e+05    77s
   8   2.34002448e+08 -1.85838956e+11  6.42e+01 2.95e-09  1.22e+05    82s
   9   1.16903528e+08 -6.02799862e+10  1.58e+01 5.87e-09  3.52e+04    87s
  10   7.59406920e+07 -1.15624246e+10  1.31e+00 1.20e-08  5.64e+03    92s
  11   6.52872349e+07 -3.49720965e+09  1.70e-01 1.93e-08  1.59e+03    96s
  12   5.99161156e+07 -1.26754042e+09  8.71e-02 1.66e-08  5.88e+02   100s
  13   5.32014757e+07 -7.14593931e+08  4.26e-02 1.73e-08  3.38e+02   104s
  14   4.75763345e+07 -4.19243594e+08  2.56e-02 1.13e-08  2.05e+02   107s
  15   4.46144181e+07 -2.68682466e+08  1.98e-02 7.74e-09  1.38e+02   110s
  16   4.24681703e+07 -2.32238573e+08  1.69e-02 7.02e-09  1.21e+02   113s
  17   4.00649851e+07 -1.71309668e+08  1.40e-02 2.28e-08  9.27e+01   116s
  18   3.56488724e+07 -1.08852818e+08  9.53e-03 4.56e-08  6.33e+01   120s
  19   3.07056135e+07 -6.45416278e+07  5.53e-03 4.71e-08  4.17e+01   123s
  20   2.74299863e+07 -3.47924936e+07  3.75e-03 3.82e-08  2.73e+01   127s
  21   2.34972523e+07 -1.04622033e+07  1.88e-03 4.48e-08  1.49e+01   130s
  22   2.04412777e+07  5.29020346e+05  8.39e-04 4.78e-08  8.72e+00   134s
  23   1.90719583e+07  6.58167139e+06  5.20e-04 2.81e-08  5.47e+00   137s
  24   1.85637797e+07  8.24697644e+06  4.12e-04 3.13e-08  4.52e+00   140s
  25   1.75907122e+07  1.08964941e+07  2.35e-04 2.83e-08  2.93e+00   143s
  26   1.69526208e+07  1.28648390e+07  1.40e-04 2.37e-08  1.79e+00   146s
  27   1.63243738e+07  1.41212659e+07  6.55e-05 2.21e-08  9.65e-01   150s
  28   1.60144057e+07  1.49221108e+07  3.35e-05 2.61e-08  4.78e-01   153s
  29   1.57455062e+07  1.53001318e+07  8.33e-06 5.51e-08  1.95e-01   157s
  30   1.56613847e+07  1.55388804e+07  1.77e-06 3.97e-08  5.36e-02   161s
  31   1.56373796e+07  1.56078015e+07  2.77e-07 1.14e-07  1.29e-02   165s
  32   1.56338312e+07  1.56239758e+07  1.01e-07 3.00e-08  4.31e-03   168s
  33   1.56327401e+07  1.56269721e+07  5.19e-08 2.43e-08  2.53e-03   171s
  34   1.56319454e+07  1.56292367e+07  2.01e-08 5.59e-08  1.19e-03   174s
  35   1.56315612e+07  1.56304742e+07  3.91e-09 2.73e-08  4.76e-04   178s
  36   1.56314420e+07  1.56313483e+07  1.29e-09 1.59e-07  4.10e-05   182s
  37   1.56314261e+07  1.56314204e+07  9.04e-10 3.21e-07  2.48e-06   185s
  38   1.56314225e+07  1.56314224e+07  2.83e-08 1.69e-06  5.16e-08   189s
  39   1.56314224e+07  1.56314224e+07  2.31e-07 1.37e-04  2.74e-10   192s

Barrier solved model in 39 iterations and 191.85 seconds (184.73 work units)
Optimal objective 1.56314224e+07


Root crossover log...

  170712 DPushes remaining with DInf 0.0000000e+00               192s
   13387 DPushes remaining with DInf 0.0000000e+00               195s
       0 DPushes remaining with DInf 0.0000000e+00               197s

    5478 PPushes remaining with PInf 0.0000000e+00               197s
       0 PPushes remaining with PInf 0.0000000e+00               198s

  Push phase complete: Pinf 0.0000000e+00, Dinf 3.3714070e-08    198s


Root simplex log...

Iteration    Objective       Primal Inf.    Dual Inf.      Time
  173413    1.5631422e+07   0.000000e+00   0.000000e+00    199s
Waiting for other threads to finish...         262s
Concurrent spin time: 113.64s (can be avoided by choosing Method=3)

Solved with barrier
  173413    1.5631422e+07   0.000000e+00   0.000000e+00    313s

Root relaxation: objective 1.563142e+07, 173413 iterations, 302.90 seconds (190.38 work units)
Total elapsed time = 326.48s
Total elapsed time = 345.23s

    Nodes    |    Current Node    |     Objective Bounds      |     Work
 Expl Unexpl |  Obj  Depth IntInf | Incumbent    BestBd   Gap | It/Node Time

     0     0 1.5631e+07    0 5292 2.9598e+07 1.5631e+07  47.2%     -  361s
     0     0 1.6710e+07    0 5177 2.9598e+07 1.6710e+07  43.5%     - 10255s
     0     0 1.6710e+07    0 5264 2.9598e+07 1.6710e+07  43.5%     - 11862s
     0     0 1.6750e+07    0 5243 2.9598e+07 1.6750e+07  43.4%     - 19796s
     0     0 1.6750e+07    0 5257 2.9598e+07 1.6750e+07  43.4%     - 21330s
     0     0 1.6755e+07    0 5304 2.9598e+07 1.6755e+07  43.4%     - 24363s
     0     0 1.6755e+07    0 5376 2.9598e+07 1.6755e+07  43.4%     - 25793s
     0     0 1.6756e+07    0 5215 2.9598e+07 1.6756e+07  43.4%     - 27987s
     0     0 1.6756e+07    0 5215 2.9598e+07 1.6756e+07  43.4%     - 28074s
     0     0 1.6756e+07    0 5307 2.9598e+07 1.6756e+07  43.4%     - 30233s
     0     0 1.6756e+07    0 5368 2.9598e+07 1.6756e+07  43.4%     - 30914s
     0     0 1.7111e+07    0 5533 2.9598e+07 1.7111e+07  42.2%     - 56521s
     0     0 1.7111e+07    0 5569 2.9598e+07 1.7111e+07  42.2%     - 61235s

Cutting planes:
  Gomory: 1
  Lift-and-project: 2
  Cover: 9
  Implied bound: 717
  Clique: 2
  MIR: 179
  StrongCG: 1
  Flow cover: 2270
  GUB cover: 1
  RLT: 46
  Relax-and-lift: 504

Explored 1 nodes (1836544 simplex iterations) in 69951.58 seconds (66505.21 work units)
Thread count was 4 (of 128 available processors)

Solution count 1: 2.95979e+07 

Time limit reached
Best objective 2.959790300000e+07, best bound 1.711061760623e+07, gap 42.1898%

Solving took 	19:25:51.622
####################################################################################################
####################################################################################################
####################################################################################################
Reached timelimit, but could find a feasible solution
####################################################################################################
Description                          Value
----------------------------  ------------
Objective (min)               29,597,903.0
Cost sailing                  15,929,209.0
Cost port visits               7,370,168.0
Cost transshipment (demands)   2,071,568.0
Cost transshipment (empties)     377,990.0
Penalty delayed demands        4,594,594.0
Revenue Empties                2,931,956.0
Penalty rejected demands       2,186,330.0
Rejected demands (%)                  3.04
Omitted ports (%)                    21.07
Gap (%)                              42.19
####################################################################################################
Export solution
####################################################################################################
Overall time 	19:26:21.583

real	1166m23.557s
user	1173m12.575s
sys	0m52.212s
finished at Sat Mar 18 07:45:13 CET 2023
